c FILE /home/rafael/Documents/HappySet/MIHS/inputs/happygen/output/graph_d_regular_k4_p0.2_v50_20241127_082612.txt
c SOURCE This is a d-regular graph formed for the happy graph colouring problem.
c DESCRIPTION It was generated using the problem generator of Rhyd Lewis
c
c GRAPH STATS
c Seed                             = 709205614
c Number of Nodes                  = 50
c Number of colours k              = 4
c Number of pre-assignments        = 10
c Degree of all vertices           = 6
c Density                          = 0.122449
c 
c The degrees of nodes 1 to 50, respectively, are as follows 
c [6, 6, 6, 6, 6, 6, 6, 6, 6, 6, 6, 6, 6, 6, 6, 6, 6, 6, 6, 6, 6, 6, 6, 6, 6, 6, 
c  6, 6, 6, 6, 6, 6, 6, 6, 6, 6, 6, 6, 6, 6, 6, 6, 6, 6, 6, 6, 6, 6, 6, 6] 
c  
p edge 50 150 4
e 1 13
e 1 16
e 1 21
e 1 27
e 1 41
e 1 47
e 2 8
e 2 22
e 2 31
e 2 38
e 2 40
e 2 50
e 3 5
e 3 9
e 3 36
e 3 48
e 3 49
e 3 50
e 4 12
e 4 14
e 4 19
e 4 32
e 4 38
e 4 39
e 5 14
e 5 22
e 5 23
e 5 48
e 5 50
e 6 9
e 6 15
e 6 23
e 6 28
e 6 41
e 6 43
e 7 9
e 7 19
e 7 26
e 7 39
e 7 40
e 7 42
e 8 21
e 8 30
e 8 35
e 8 44
e 8 48
e 9 27
e 9 46
e 9 47
e 10 14
e 10 23
e 10 36
e 10 43
e 10 45
e 10 46
e 11 13
e 11 16
e 11 17
e 11 29
e 11 36
e 11 38
e 12 15
e 12 17
e 12 25
e 12 29
e 12 45
e 13 24
e 13 28
e 13 29
e 13 47
e 14 24
e 14 26
e 14 32
e 15 32
e 15 41
e 15 42
e 15 48
e 16 21
e 16 35
e 16 40
e 16 43
e 17 21
e 17 32
e 17 33
e 17 34
e 18 19
e 18 24
e 18 25
e 18 29
e 18 40
e 18 48
e 19 36
e 19 38
e 19 41
e 20 22
e 20 27
e 20 28
e 20 34
e 20 45
e 20 49
e 21 34
e 21 46
e 22 24
e 22 29
e 22 37
e 23 30
e 23 33
e 23 44
e 24 28
e 24 33
e 25 28
e 25 37
e 25 42
e 25 43
e 26 30
e 26 37
e 26 40
e 26 44
e 27 31
e 27 34
e 27 50
e 28 34
e 29 39
e 30 35
e 30 41
e 30 46
e 31 36
e 31 38
e 31 44
e 31 50
e 32 38
e 32 45
e 33 34
e 33 39
e 33 42
e 35 36
e 35 45
e 35 49
e 37 39
e 37 42
e 37 49
e 39 42
e 40 50
e 41 49
e 43 47
e 43 49
e 44 46
e 44 47
e 45 46
e 47 48
n 5 4
n 8 3
n 11 2
n 12 1
n 16 2
n 24 1
n 25 1
n 28 1
n 32 2
n 40 2
